<number of tasks>
100

<cycle time>
1000

<order strength>
0.896


<task times>
1 198
2 72
3 216
4 156
5 252
6 52
7 140
8 90
9 97
10 77
11 116
12 128
13 63
14 254
15 138
16 86
17 169
18 171
19 144
20 58
21 135
22 284
23 164
24 168
25 127
26 250
27 199
28 24
29 26
30 219
31 185
32 189
33 70
34 161
35 67
36 47
37 205
38 194
39 111
40 161
41 45
42 197
43 108
44 248
45 108
46 178
47 118
48 142
49 182
50 21
51 189
52 174
53 303
54 86
55 122
56 212
57 226
58 145
59 143
60 140
61 107
62 56
63 236
64 264
65 127
66 166
67 284
68 23
69 24
70 112
71 124
72 54
73 155
74 40
75 112
76 130
77 194
78 182
79 60
80 71
81 39
82 69
83 113
84 312
85 140
86 167
87 100
88 48
89 157
90 169
91 30
92 153
93 162
94 47
95 140
96 218
97 132
98 179
99 125
100 32

<precedence relations>
1,5
1,6
1,7
1,8
2,5
2,6
2,7
2,8
3,5
3,6
3,7
3,8
4,5
4,6
4,7
4,8
5,9
5,10
5,11
6,9
6,10
6,11
7,9
7,10
7,11
8,9
8,10
8,11
9,12
9,13
9,14
9,15
10,12
10,13
10,14
10,15
11,12
11,13
11,14
11,15
12,16
12,17
12,18
13,16
13,17
13,18
14,16
14,17
14,18
15,16
15,17
15,18
16,19
16,20
16,21
17,19
17,20
17,21
18,19
18,20
18,21
19,22
19,23
19,24
20,22
20,23
20,24
21,22
21,23
21,24
22,25
22,26
22,27
22,28
22,29
23,25
23,26
23,27
23,28
23,29
24,25
24,26
24,27
24,28
24,29
25,30
26,30
27,30
28,30
29,30
30,31
30,32
30,33
31,34
31,35
31,36
32,34
32,35
32,36
33,34
33,35
33,36
34,37
34,38
34,39
35,37
35,38
35,39
36,37
36,38
36,39
37,40
37,41
37,42
38,40
38,41
38,42
39,40
39,41
39,42
40,43
40,44
40,45
40,46
41,43
41,45
41,46
42,43
42,44
42,45
42,46
43,47
43,48
44,47
44,61
45,47
46,47
46,52
47,49
47,51
47,58
48,50
48,51
48,52
48,53
49,56
49,67
50,54
50,55
50,56
50,57
50,58
51,75
51,79
53,79
54,62
54,63
55,59
55,77
55,81
56,59
56,60
56,66
56,69
57,59
57,60
57,61
57,65
58,62
58,63
60,78
60,84
61,67
62,64
63,64
64,65
64,66
64,67
64,68
64,69
65,70
65,71
65,72
65,73
66,70
66,71
66,72
66,73
67,70
67,73
68,70
68,71
69,70
69,73
69,77
70,74
70,75
70,79
71,74
71,83
72,76
72,77
73,81
73,90
74,80
75,78
75,83
76,78
76,79
77,83
78,81
78,82
79,83
79,84
80,81
80,82
80,84
81,93
81,95
82,85
82,90
83,85
83,86
83,87
84,86
84,87
84,96
85,88
85,91
86,90
87,89
87,100
88,93
90,91
90,92
91,95
92,94
93,96
94,100
95,97
95,99
96,98
96,99

<end>
